Maximize
  9 x0_0_ + 9 x0_1_ + 9 x0_2_ + 9 x0_3_ + 9 x0_4_ + 9 x0_5_ + 7 x0_6_
   + 2 x0_7_ + 2 x0_8_ + 2 x0_9_ + 144 x1_7_ + 144 x1_8_ + 144 x1_9_
   + 85 x2_7_ + 85 x2_8_ + 85 x2_9_ + 432 x3_7_ + 432 x3_8_ + 432 x3_9_
   + 27 x4_0_ + 27 x4_1_ + 27 x4_2_ + 27 x4_3_ + 27 x4_4_ + 27 x4_5_
   + 21 x4_6_ + 6 x4_7_ + 6 x4_8_ + 6 x4_9_ + 360 x5_7_ + 360 x5_8_
   + 360 x5_9_ + 36 x6_0_ + 36 x6_1_ + 36 x6_2_ + 36 x6_3_ + 36 x6_4_
   + 36 x6_5_ + 28 x6_6_ + 8 x6_7_ + 8 x6_8_ + 8 x6_9_ + 36 x7_0_
   + 36 x7_1_ + 36 x7_2_ + 36 x7_3_ + 36 x7_4_ + 36 x7_5_ + 28 x7_6_
   + 8 x7_7_ + 8 x7_8_ + 8 x7_9_ + 27 x8_0_ + 27 x8_1_ + 27 x8_2_
   + 27 x8_3_ + 27 x8_4_ + 27 x8_5_ + 21 x8_6_ + 6 x8_7_ + 6 x8_8_
   + 6 x8_9_ + 9 x9_0_ + 9 x9_1_ + 9 x9_2_ + 9 x9_3_ + 9 x9_4_ + 9 x9_5_
   + 7 x9_6_ + 2 x9_7_ + 2 x9_8_ + 2 x9_9_ + 34 x10_7_ + 34 x10_8_
   + 34 x10_9_ + 45 x11_0_ + 45 x11_1_ + 45 x11_2_ + 45 x11_3_ + 45 x11_4_
   + 45 x11_5_ + 35 x11_6_ + 10 x11_7_ + 10 x11_8_ + 10 x11_9_ + 18 x12_0_
   + 18 x12_1_ + 18 x12_2_ + 18 x12_3_ + 18 x12_4_ + 18 x12_5_ + 14 x12_6_
   + 4 x12_7_ + 4 x12_8_ + 4 x12_9_ + 54 x13_0_ + 54 x13_1_ + 54 x13_2_
   + 54 x13_3_ + 54 x13_4_ + 54 x13_5_ + 42 x13_6_ + 12 x13_7_ + 12 x13_8_
   + 12 x13_9_ + 36 x14_0_ + 36 x14_1_ + 36 x14_2_ + 36 x14_3_ + 36 x14_4_
   + 36 x14_5_ + 28 x14_6_ + 8 x14_7_ + 8 x14_8_ + 8 x14_9_
Subject To
 R0: x0_0_ + x0_1_ + x0_2_ + x0_3_ + x0_4_ + x0_5_ + x0_6_ + x0_7_ + x0_8_
   + x0_9_ + x0_n_ = 1
 R1: x1_6_ + x1_7_ + x1_8_ + x1_9_ + x1_n_ = 1
 R2: x2_7_ + x2_8_ + x2_9_ + x2_n_ = 1
 R3: x3_6_ + x3_7_ + x3_8_ + x3_9_ + x3_n_ = 1
 R4: x4_0_ + x4_1_ + x4_2_ + x4_3_ + x4_4_ + x4_5_ + x4_6_ + x4_7_ + x4_8_
   + x4_9_ + x4_n_ = 1
 R5: x5_6_ + x5_7_ + x5_8_ + x5_9_ + x5_n_ = 1
 R6: x6_0_ + x6_1_ + x6_2_ + x6_3_ + x6_4_ + x6_5_ + x6_6_ + x6_7_ + x6_8_
   + x6_9_ + x6_n_ = 1
 R7: x7_0_ + x7_1_ + x7_2_ + x7_3_ + x7_4_ + x7_5_ + x7_6_ + x7_7_ + x7_8_
   + x7_9_ + x7_n_ = 1
 R8: x8_0_ + x8_1_ + x8_2_ + x8_3_ + x8_4_ + x8_5_ + x8_6_ + x8_7_ + x8_8_
   + x8_9_ + x8_n_ = 1
 R9: x9_0_ + x9_1_ + x9_2_ + x9_3_ + x9_4_ + x9_5_ + x9_6_ + x9_7_ + x9_8_
   + x9_9_ + x9_n_ = 1
 R10: x10_7_ + x10_8_ + x10_9_ + x10_n_ = 1
 R11: x11_0_ + x11_1_ + x11_2_ + x11_3_ + x11_4_ + x11_5_ + x11_6_ + x11_7_
   + x11_8_ + x11_9_ + x11_n_ = 1
 R12: x12_0_ + x12_1_ + x12_2_ + x12_3_ + x12_4_ + x12_5_ + x12_6_ + x12_7_
   + x12_8_ + x12_9_ + x12_n_ = 1
 R13: x13_0_ + x13_1_ + x13_2_ + x13_3_ + x13_4_ + x13_5_ + x13_6_ + x13_7_
   + x13_8_ + x13_9_ + x13_n_ = 1
 R14: x14_0_ + x14_1_ + x14_2_ + x14_3_ + x14_4_ + x14_5_ + x14_6_ + x14_7_
   + x14_8_ + x14_9_ + x14_n_ = 1
 R15: x0_0_ + x9_0_ <= 1
 R16: x0_1_ + x9_1_ <= 1
 R17: x0_2_ + x9_2_ <= 1
 R18: x0_3_ + x9_3_ <= 1
 R19: x0_4_ + x9_4_ <= 1
 R20: x0_5_ + x9_5_ <= 1
 R21: x0_6_ + x9_6_ <= 1
 R22: x0_7_ + x9_7_ <= 1
 R23: x0_8_ + x9_8_ <= 1
 R24: x0_9_ + x9_9_ <= 1
 R25: x0_0_ + x13_0_ <= 1
 R26: x0_1_ + x13_1_ <= 1
 R27: x0_2_ + x13_2_ <= 1
 R28: x0_3_ + x13_3_ <= 1
 R29: x0_4_ + x13_4_ <= 1
 R30: x0_5_ + x13_5_ <= 1
 R31: x0_6_ + x13_6_ <= 1
 R32: x0_7_ + x13_7_ <= 1
 R33: x0_8_ + x13_8_ <= 1
 R34: x0_9_ + x13_9_ <= 1
 R35: x0_0_ + x14_0_ <= 1
 R36: x0_1_ + x14_1_ <= 1
 R37: x0_2_ + x14_2_ <= 1
 R38: x0_3_ + x14_3_ <= 1
 R39: x0_4_ + x14_4_ <= 1
 R40: x0_5_ + x14_5_ <= 1
 R41: x0_6_ + x14_6_ <= 1
 R42: x0_7_ + x14_7_ <= 1
 R43: x0_8_ + x14_8_ <= 1
 R44: x0_9_ + x14_9_ <= 1
 R45: x1_6_ + x3_6_ <= 1
 R46: x1_7_ + x3_7_ <= 1
 R47: x1_8_ + x3_8_ <= 1
 R48: x1_9_ + x3_9_ <= 1
 R49: x1_6_ + x14_6_ <= 1
 R50: x1_7_ + x14_7_ <= 1
 R51: x1_8_ + x14_8_ <= 1
 R52: x1_9_ + x14_9_ <= 1
 R53: x1_7_ + x2_7_ <= 1
 R54: x1_8_ + x2_8_ <= 1
 R55: x1_9_ + x2_9_ <= 1
 R56: x2_7_ + x3_7_ <= 1
 R57: x2_8_ + x3_8_ <= 1
 R58: x2_9_ + x3_9_ <= 1
 R59: x2_7_ + x5_7_ <= 1
 R60: x2_8_ + x5_8_ <= 1
 R61: x2_9_ + x5_9_ <= 1
 R62: x2_7_ + x13_7_ <= 1
 R63: x2_8_ + x13_8_ <= 1
 R64: x2_9_ + x13_9_ <= 1
 R65: x2_7_ + x14_7_ <= 1
 R66: x2_8_ + x14_8_ <= 1
 R67: x2_9_ + x14_9_ <= 1
 R68: x0_6_ + x3_6_ <= 1
 R69: x0_7_ + x3_7_ <= 1
 R70: x0_8_ + x3_8_ <= 1
 R71: x0_9_ + x3_9_ <= 1
 R72: x1_6_ + x3_6_ <= 1
 R73: x1_7_ + x3_7_ <= 1
 R74: x1_8_ + x3_8_ <= 1
 R75: x1_9_ + x3_9_ <= 1
 R76: x3_6_ + x5_6_ <= 1
 R77: x3_7_ + x5_7_ <= 1
 R78: x3_8_ + x5_8_ <= 1
 R79: x3_9_ + x5_9_ <= 1
 R80: x3_6_ + x9_6_ <= 1
 R81: x3_7_ + x9_7_ <= 1
 R82: x3_8_ + x9_8_ <= 1
 R83: x3_9_ + x9_9_ <= 1
 R84: x3_6_ + x13_6_ <= 1
 R85: x3_7_ + x13_7_ <= 1
 R86: x3_8_ + x13_8_ <= 1
 R87: x3_9_ + x13_9_ <= 1
 R88: x3_6_ + x14_6_ <= 1
 R89: x3_7_ + x14_7_ <= 1
 R90: x3_8_ + x14_8_ <= 1
 R91: x3_9_ + x14_9_ <= 1
 R92: x4_0_ + x6_0_ <= 1
 R93: x4_1_ + x6_1_ <= 1
 R94: x4_2_ + x6_2_ <= 1
 R95: x4_3_ + x6_3_ <= 1
 R96: x4_4_ + x6_4_ <= 1
 R97: x4_5_ + x6_5_ <= 1
 R98: x4_6_ + x6_6_ <= 1
 R99: x4_7_ + x6_7_ <= 1
 R100: x4_8_ + x6_8_ <= 1
 R101: x4_9_ + x6_9_ <= 1
 R102: x4_0_ + x7_0_ <= 1
 R103: x4_1_ + x7_1_ <= 1
 R104: x4_2_ + x7_2_ <= 1
 R105: x4_3_ + x7_3_ <= 1
 R106: x4_4_ + x7_4_ <= 1
 R107: x4_5_ + x7_5_ <= 1
 R108: x4_6_ + x7_6_ <= 1
 R109: x4_7_ + x7_7_ <= 1
 R110: x4_8_ + x7_8_ <= 1
 R111: x4_9_ + x7_9_ <= 1
 R112: x4_0_ + x11_0_ <= 1
 R113: x4_1_ + x11_1_ <= 1
 R114: x4_2_ + x11_2_ <= 1
 R115: x4_3_ + x11_3_ <= 1
 R116: x4_4_ + x11_4_ <= 1
 R117: x4_5_ + x11_5_ <= 1
 R118: x4_6_ + x11_6_ <= 1
 R119: x4_7_ + x11_7_ <= 1
 R120: x4_8_ + x11_8_ <= 1
 R121: x4_9_ + x11_9_ <= 1
 R122: x4_0_ + x12_0_ <= 1
 R123: x4_1_ + x12_1_ <= 1
 R124: x4_2_ + x12_2_ <= 1
 R125: x4_3_ + x12_3_ <= 1
 R126: x4_4_ + x12_4_ <= 1
 R127: x4_5_ + x12_5_ <= 1
 R128: x4_6_ + x12_6_ <= 1
 R129: x4_7_ + x12_7_ <= 1
 R130: x4_8_ + x12_8_ <= 1
 R131: x4_9_ + x12_9_ <= 1
 R132: x0_6_ + x5_6_ <= 1
 R133: x0_7_ + x5_7_ <= 1
 R134: x0_8_ + x5_8_ <= 1
 R135: x0_9_ + x5_9_ <= 1
 R136: x3_6_ + x5_6_ <= 1
 R137: x3_7_ + x5_7_ <= 1
 R138: x3_8_ + x5_8_ <= 1
 R139: x3_9_ + x5_9_ <= 1
 R140: x5_6_ + x8_6_ <= 1
 R141: x5_7_ + x8_7_ <= 1
 R142: x5_8_ + x8_8_ <= 1
 R143: x5_9_ + x8_9_ <= 1
 R144: x5_6_ + x9_6_ <= 1
 R145: x5_7_ + x9_7_ <= 1
 R146: x5_8_ + x9_8_ <= 1
 R147: x5_9_ + x9_9_ <= 1
 R148: x5_6_ + x11_6_ <= 1
 R149: x5_7_ + x11_7_ <= 1
 R150: x5_8_ + x11_8_ <= 1
 R151: x5_9_ + x11_9_ <= 1
 R152: x5_6_ + x13_6_ <= 1
 R153: x5_7_ + x13_7_ <= 1
 R154: x5_8_ + x13_8_ <= 1
 R155: x5_9_ + x13_9_ <= 1
 R156: x5_6_ + x14_6_ <= 1
 R157: x5_7_ + x14_7_ <= 1
 R158: x5_8_ + x14_8_ <= 1
 R159: x5_9_ + x14_9_ <= 1
 R160: x4_0_ + x6_0_ <= 1
 R161: x4_1_ + x6_1_ <= 1
 R162: x4_2_ + x6_2_ <= 1
 R163: x4_3_ + x6_3_ <= 1
 R164: x4_4_ + x6_4_ <= 1
 R165: x4_5_ + x6_5_ <= 1
 R166: x4_6_ + x6_6_ <= 1
 R167: x4_7_ + x6_7_ <= 1
 R168: x4_8_ + x6_8_ <= 1
 R169: x4_9_ + x6_9_ <= 1
 R170: x6_0_ + x7_0_ <= 1
 R171: x6_1_ + x7_1_ <= 1
 R172: x6_2_ + x7_2_ <= 1
 R173: x6_3_ + x7_3_ <= 1
 R174: x6_4_ + x7_4_ <= 1
 R175: x6_5_ + x7_5_ <= 1
 R176: x6_6_ + x7_6_ <= 1
 R177: x6_7_ + x7_7_ <= 1
 R178: x6_8_ + x7_8_ <= 1
 R179: x6_9_ + x7_9_ <= 1
 R180: x6_0_ + x11_0_ <= 1
 R181: x6_1_ + x11_1_ <= 1
 R182: x6_2_ + x11_2_ <= 1
 R183: x6_3_ + x11_3_ <= 1
 R184: x6_4_ + x11_4_ <= 1
 R185: x6_5_ + x11_5_ <= 1
 R186: x6_6_ + x11_6_ <= 1
 R187: x6_7_ + x11_7_ <= 1
 R188: x6_8_ + x11_8_ <= 1
 R189: x6_9_ + x11_9_ <= 1
 R190: x6_0_ + x12_0_ <= 1
 R191: x6_1_ + x12_1_ <= 1
 R192: x6_2_ + x12_2_ <= 1
 R193: x6_3_ + x12_3_ <= 1
 R194: x6_4_ + x12_4_ <= 1
 R195: x6_5_ + x12_5_ <= 1
 R196: x6_6_ + x12_6_ <= 1
 R197: x6_7_ + x12_7_ <= 1
 R198: x6_8_ + x12_8_ <= 1
 R199: x6_9_ + x12_9_ <= 1
 R200: x4_0_ + x7_0_ <= 1
 R201: x4_1_ + x7_1_ <= 1
 R202: x4_2_ + x7_2_ <= 1
 R203: x4_3_ + x7_3_ <= 1
 R204: x4_4_ + x7_4_ <= 1
 R205: x4_5_ + x7_5_ <= 1
 R206: x4_6_ + x7_6_ <= 1
 R207: x4_7_ + x7_7_ <= 1
 R208: x4_8_ + x7_8_ <= 1
 R209: x4_9_ + x7_9_ <= 1
 R210: x6_0_ + x7_0_ <= 1
 R211: x6_1_ + x7_1_ <= 1
 R212: x6_2_ + x7_2_ <= 1
 R213: x6_3_ + x7_3_ <= 1
 R214: x6_4_ + x7_4_ <= 1
 R215: x6_5_ + x7_5_ <= 1
 R216: x6_6_ + x7_6_ <= 1
 R217: x6_7_ + x7_7_ <= 1
 R218: x6_8_ + x7_8_ <= 1
 R219: x6_9_ + x7_9_ <= 1
 R220: x7_0_ + x11_0_ <= 1
 R221: x7_1_ + x11_1_ <= 1
 R222: x7_2_ + x11_2_ <= 1
 R223: x7_3_ + x11_3_ <= 1
 R224: x7_4_ + x11_4_ <= 1
 R225: x7_5_ + x11_5_ <= 1
 R226: x7_6_ + x11_6_ <= 1
 R227: x7_7_ + x11_7_ <= 1
 R228: x7_8_ + x11_8_ <= 1
 R229: x7_9_ + x11_9_ <= 1
 R230: x7_0_ + x12_0_ <= 1
 R231: x7_1_ + x12_1_ <= 1
 R232: x7_2_ + x12_2_ <= 1
 R233: x7_3_ + x12_3_ <= 1
 R234: x7_4_ + x12_4_ <= 1
 R235: x7_5_ + x12_5_ <= 1
 R236: x7_6_ + x12_6_ <= 1
 R237: x7_7_ + x12_7_ <= 1
 R238: x7_8_ + x12_8_ <= 1
 R239: x7_9_ + x12_9_ <= 1
 R240: x8_0_ + x11_0_ <= 1
 R241: x8_1_ + x11_1_ <= 1
 R242: x8_2_ + x11_2_ <= 1
 R243: x8_3_ + x11_3_ <= 1
 R244: x8_4_ + x11_4_ <= 1
 R245: x8_5_ + x11_5_ <= 1
 R246: x8_6_ + x11_6_ <= 1
 R247: x8_7_ + x11_7_ <= 1
 R248: x8_8_ + x11_8_ <= 1
 R249: x8_9_ + x11_9_ <= 1
 R250: x8_0_ + x13_0_ <= 1
 R251: x8_1_ + x13_1_ <= 1
 R252: x8_2_ + x13_2_ <= 1
 R253: x8_3_ + x13_3_ <= 1
 R254: x8_4_ + x13_4_ <= 1
 R255: x8_5_ + x13_5_ <= 1
 R256: x8_6_ + x13_6_ <= 1
 R257: x8_7_ + x13_7_ <= 1
 R258: x8_8_ + x13_8_ <= 1
 R259: x8_9_ + x13_9_ <= 1
 R260: x0_0_ + x9_0_ <= 1
 R261: x0_1_ + x9_1_ <= 1
 R262: x0_2_ + x9_2_ <= 1
 R263: x0_3_ + x9_3_ <= 1
 R264: x0_4_ + x9_4_ <= 1
 R265: x0_5_ + x9_5_ <= 1
 R266: x0_6_ + x9_6_ <= 1
 R267: x0_7_ + x9_7_ <= 1
 R268: x0_8_ + x9_8_ <= 1
 R269: x0_9_ + x9_9_ <= 1
 R270: x9_0_ + x13_0_ <= 1
 R271: x9_1_ + x13_1_ <= 1
 R272: x9_2_ + x13_2_ <= 1
 R273: x9_3_ + x13_3_ <= 1
 R274: x9_4_ + x13_4_ <= 1
 R275: x9_5_ + x13_5_ <= 1
 R276: x9_6_ + x13_6_ <= 1
 R277: x9_7_ + x13_7_ <= 1
 R278: x9_8_ + x13_8_ <= 1
 R279: x9_9_ + x13_9_ <= 1
 R280: x9_0_ + x14_0_ <= 1
 R281: x9_1_ + x14_1_ <= 1
 R282: x9_2_ + x14_2_ <= 1
 R283: x9_3_ + x14_3_ <= 1
 R284: x9_4_ + x14_4_ <= 1
 R285: x9_5_ + x14_5_ <= 1
 R286: x9_6_ + x14_6_ <= 1
 R287: x9_7_ + x14_7_ <= 1
 R288: x9_8_ + x14_8_ <= 1
 R289: x9_9_ + x14_9_ <= 1
 R290: x5_7_ + x10_7_ <= 1
 R291: x5_8_ + x10_8_ <= 1
 R292: x5_9_ + x10_9_ <= 1
 R293: x6_7_ + x10_7_ <= 1
 R294: x6_8_ + x10_8_ <= 1
 R295: x6_9_ + x10_9_ <= 1
 R296: x7_7_ + x10_7_ <= 1
 R297: x7_8_ + x10_8_ <= 1
 R298: x7_9_ + x10_9_ <= 1
 R299: x8_7_ + x10_7_ <= 1
 R300: x8_8_ + x10_8_ <= 1
 R301: x8_9_ + x10_9_ <= 1
 R302: x10_7_ + x11_7_ <= 1
 R303: x10_8_ + x11_8_ <= 1
 R304: x10_9_ + x11_9_ <= 1
 R305: x10_7_ + x13_7_ <= 1
 R306: x10_8_ + x13_8_ <= 1
 R307: x10_9_ + x13_9_ <= 1
 R308: x4_0_ + x11_0_ <= 1
 R309: x4_1_ + x11_1_ <= 1
 R310: x4_2_ + x11_2_ <= 1
 R311: x4_3_ + x11_3_ <= 1
 R312: x4_4_ + x11_4_ <= 1
 R313: x4_5_ + x11_5_ <= 1
 R314: x4_6_ + x11_6_ <= 1
 R315: x4_7_ + x11_7_ <= 1
 R316: x4_8_ + x11_8_ <= 1
 R317: x4_9_ + x11_9_ <= 1
 R318: x6_0_ + x11_0_ <= 1
 R319: x6_1_ + x11_1_ <= 1
 R320: x6_2_ + x11_2_ <= 1
 R321: x6_3_ + x11_3_ <= 1
 R322: x6_4_ + x11_4_ <= 1
 R323: x6_5_ + x11_5_ <= 1
 R324: x6_6_ + x11_6_ <= 1
 R325: x6_7_ + x11_7_ <= 1
 R326: x6_8_ + x11_8_ <= 1
 R327: x6_9_ + x11_9_ <= 1
 R328: x7_0_ + x11_0_ <= 1
 R329: x7_1_ + x11_1_ <= 1
 R330: x7_2_ + x11_2_ <= 1
 R331: x7_3_ + x11_3_ <= 1
 R332: x7_4_ + x11_4_ <= 1
 R333: x7_5_ + x11_5_ <= 1
 R334: x7_6_ + x11_6_ <= 1
 R335: x7_7_ + x11_7_ <= 1
 R336: x7_8_ + x11_8_ <= 1
 R337: x7_9_ + x11_9_ <= 1
 R338: x8_0_ + x11_0_ <= 1
 R339: x8_1_ + x11_1_ <= 1
 R340: x8_2_ + x11_2_ <= 1
 R341: x8_3_ + x11_3_ <= 1
 R342: x8_4_ + x11_4_ <= 1
 R343: x8_5_ + x11_5_ <= 1
 R344: x8_6_ + x11_6_ <= 1
 R345: x8_7_ + x11_7_ <= 1
 R346: x8_8_ + x11_8_ <= 1
 R347: x8_9_ + x11_9_ <= 1
 R348: x11_0_ + x12_0_ <= 1
 R349: x11_1_ + x12_1_ <= 1
 R350: x11_2_ + x12_2_ <= 1
 R351: x11_3_ + x12_3_ <= 1
 R352: x11_4_ + x12_4_ <= 1
 R353: x11_5_ + x12_5_ <= 1
 R354: x11_6_ + x12_6_ <= 1
 R355: x11_7_ + x12_7_ <= 1
 R356: x11_8_ + x12_8_ <= 1
 R357: x11_9_ + x12_9_ <= 1
 R358: x11_0_ + x13_0_ <= 1
 R359: x11_1_ + x13_1_ <= 1
 R360: x11_2_ + x13_2_ <= 1
 R361: x11_3_ + x13_3_ <= 1
 R362: x11_4_ + x13_4_ <= 1
 R363: x11_5_ + x13_5_ <= 1
 R364: x11_6_ + x13_6_ <= 1
 R365: x11_7_ + x13_7_ <= 1
 R366: x11_8_ + x13_8_ <= 1
 R367: x11_9_ + x13_9_ <= 1
 R368: x4_0_ + x12_0_ <= 1
 R369: x4_1_ + x12_1_ <= 1
 R370: x4_2_ + x12_2_ <= 1
 R371: x4_3_ + x12_3_ <= 1
 R372: x4_4_ + x12_4_ <= 1
 R373: x4_5_ + x12_5_ <= 1
 R374: x4_6_ + x12_6_ <= 1
 R375: x4_7_ + x12_7_ <= 1
 R376: x4_8_ + x12_8_ <= 1
 R377: x4_9_ + x12_9_ <= 1
 R378: x6_0_ + x12_0_ <= 1
 R379: x6_1_ + x12_1_ <= 1
 R380: x6_2_ + x12_2_ <= 1
 R381: x6_3_ + x12_3_ <= 1
 R382: x6_4_ + x12_4_ <= 1
 R383: x6_5_ + x12_5_ <= 1
 R384: x6_6_ + x12_6_ <= 1
 R385: x6_7_ + x12_7_ <= 1
 R386: x6_8_ + x12_8_ <= 1
 R387: x6_9_ + x12_9_ <= 1
 R388: x7_0_ + x12_0_ <= 1
 R389: x7_1_ + x12_1_ <= 1
 R390: x7_2_ + x12_2_ <= 1
 R391: x7_3_ + x12_3_ <= 1
 R392: x7_4_ + x12_4_ <= 1
 R393: x7_5_ + x12_5_ <= 1
 R394: x7_6_ + x12_6_ <= 1
 R395: x7_7_ + x12_7_ <= 1
 R396: x7_8_ + x12_8_ <= 1
 R397: x7_9_ + x12_9_ <= 1
 R398: x11_0_ + x12_0_ <= 1
 R399: x11_1_ + x12_1_ <= 1
 R400: x11_2_ + x12_2_ <= 1
 R401: x11_3_ + x12_3_ <= 1
 R402: x11_4_ + x12_4_ <= 1
 R403: x11_5_ + x12_5_ <= 1
 R404: x11_6_ + x12_6_ <= 1
 R405: x11_7_ + x12_7_ <= 1
 R406: x11_8_ + x12_8_ <= 1
 R407: x11_9_ + x12_9_ <= 1
 R408: x0_0_ + x13_0_ <= 1
 R409: x0_1_ + x13_1_ <= 1
 R410: x0_2_ + x13_2_ <= 1
 R411: x0_3_ + x13_3_ <= 1
 R412: x0_4_ + x13_4_ <= 1
 R413: x0_5_ + x13_5_ <= 1
 R414: x0_6_ + x13_6_ <= 1
 R415: x0_7_ + x13_7_ <= 1
 R416: x0_8_ + x13_8_ <= 1
 R417: x0_9_ + x13_9_ <= 1
 R418: x8_0_ + x13_0_ <= 1
 R419: x8_1_ + x13_1_ <= 1
 R420: x8_2_ + x13_2_ <= 1
 R421: x8_3_ + x13_3_ <= 1
 R422: x8_4_ + x13_4_ <= 1
 R423: x8_5_ + x13_5_ <= 1
 R424: x8_6_ + x13_6_ <= 1
 R425: x8_7_ + x13_7_ <= 1
 R426: x8_8_ + x13_8_ <= 1
 R427: x8_9_ + x13_9_ <= 1
 R428: x9_0_ + x13_0_ <= 1
 R429: x9_1_ + x13_1_ <= 1
 R430: x9_2_ + x13_2_ <= 1
 R431: x9_3_ + x13_3_ <= 1
 R432: x9_4_ + x13_4_ <= 1
 R433: x9_5_ + x13_5_ <= 1
 R434: x9_6_ + x13_6_ <= 1
 R435: x9_7_ + x13_7_ <= 1
 R436: x9_8_ + x13_8_ <= 1
 R437: x9_9_ + x13_9_ <= 1
 R438: x11_0_ + x13_0_ <= 1
 R439: x11_1_ + x13_1_ <= 1
 R440: x11_2_ + x13_2_ <= 1
 R441: x11_3_ + x13_3_ <= 1
 R442: x11_4_ + x13_4_ <= 1
 R443: x11_5_ + x13_5_ <= 1
 R444: x11_6_ + x13_6_ <= 1
 R445: x11_7_ + x13_7_ <= 1
 R446: x11_8_ + x13_8_ <= 1
 R447: x11_9_ + x13_9_ <= 1
 R448: x13_0_ + x14_0_ <= 1
 R449: x13_1_ + x14_1_ <= 1
 R450: x13_2_ + x14_2_ <= 1
 R451: x13_3_ + x14_3_ <= 1
 R452: x13_4_ + x14_4_ <= 1
 R453: x13_5_ + x14_5_ <= 1
 R454: x13_6_ + x14_6_ <= 1
 R455: x13_7_ + x14_7_ <= 1
 R456: x13_8_ + x14_8_ <= 1
 R457: x13_9_ + x14_9_ <= 1
 R458: x0_0_ + x14_0_ <= 1
 R459: x0_1_ + x14_1_ <= 1
 R460: x0_2_ + x14_2_ <= 1
 R461: x0_3_ + x14_3_ <= 1
 R462: x0_4_ + x14_4_ <= 1
 R463: x0_5_ + x14_5_ <= 1
 R464: x0_6_ + x14_6_ <= 1
 R465: x0_7_ + x14_7_ <= 1
 R466: x0_8_ + x14_8_ <= 1
 R467: x0_9_ + x14_9_ <= 1
 R468: x9_0_ + x14_0_ <= 1
 R469: x9_1_ + x14_1_ <= 1
 R470: x9_2_ + x14_2_ <= 1
 R471: x9_3_ + x14_3_ <= 1
 R472: x9_4_ + x14_4_ <= 1
 R473: x9_5_ + x14_5_ <= 1
 R474: x9_6_ + x14_6_ <= 1
 R475: x9_7_ + x14_7_ <= 1
 R476: x9_8_ + x14_8_ <= 1
 R477: x9_9_ + x14_9_ <= 1
 R478: x13_0_ + x14_0_ <= 1
 R479: x13_1_ + x14_1_ <= 1
 R480: x13_2_ + x14_2_ <= 1
 R481: x13_3_ + x14_3_ <= 1
 R482: x13_4_ + x14_4_ <= 1
 R483: x13_5_ + x14_5_ <= 1
 R484: x13_6_ + x14_6_ <= 1
 R485: x13_7_ + x14_7_ <= 1
 R486: x13_8_ + x14_8_ <= 1
 R487: x13_9_ + x14_9_ <= 1
 R488: <= 1
 R489: 9 x0_0_ + 9 x0_1_ + 9 x0_2_ + 9 x0_3_ + 9 x0_4_ + 9 x0_5_ + 7 x0_6_
   + 2 x0_7_ + 2 x0_8_ + 2 x0_9_ + 144 x1_7_ + 144 x1_8_ + 144 x1_9_
   + 85 x2_7_ + 85 x2_8_ + 85 x2_9_ + 432 x3_7_ + 432 x3_8_ + 432 x3_9_
   + 27 x4_0_ + 27 x4_1_ + 27 x4_2_ + 27 x4_3_ + 27 x4_4_ + 27 x4_5_
   + 21 x4_6_ + 6 x4_7_ + 6 x4_8_ + 6 x4_9_ + 360 x5_7_ + 360 x5_8_
   + 360 x5_9_ + 36 x6_0_ + 36 x6_1_ + 36 x6_2_ + 36 x6_3_ + 36 x6_4_
   + 36 x6_5_ + 28 x6_6_ + 8 x6_7_ + 8 x6_8_ + 8 x6_9_ + 36 x7_0_
   + 36 x7_1_ + 36 x7_2_ + 36 x7_3_ + 36 x7_4_ + 36 x7_5_ + 28 x7_6_
   + 8 x7_7_ + 8 x7_8_ + 8 x7_9_ + 27 x8_0_ + 27 x8_1_ + 27 x8_2_
   + 27 x8_3_ + 27 x8_4_ + 27 x8_5_ + 21 x8_6_ + 6 x8_7_ + 6 x8_8_
   + 6 x8_9_ + 9 x9_0_ + 9 x9_1_ + 9 x9_2_ + 9 x9_3_ + 9 x9_4_ + 9 x9_5_
   + 7 x9_6_ + 2 x9_7_ + 2 x9_8_ + 2 x9_9_ + 34 x10_7_ + 34 x10_8_
   + 34 x10_9_ + 45 x11_0_ + 45 x11_1_ + 45 x11_2_ + 45 x11_3_ + 45 x11_4_
   + 45 x11_5_ + 35 x11_6_ + 10 x11_7_ + 10 x11_8_ + 10 x11_9_ + 18 x12_0_
   + 18 x12_1_ + 18 x12_2_ + 18 x12_3_ + 18 x12_4_ + 18 x12_5_ + 14 x12_6_
   + 4 x12_7_ + 4 x12_8_ + 4 x12_9_ + 54 x13_0_ + 54 x13_1_ + 54 x13_2_
   + 54 x13_3_ + 54 x13_4_ + 54 x13_5_ + 42 x13_6_ + 12 x13_7_ + 12 x13_8_
   + 12 x13_9_ + 36 x14_0_ + 36 x14_1_ + 36 x14_2_ + 36 x14_3_ + 36 x14_4_
   + 36 x14_5_ + 28 x14_6_ + 8 x14_7_ + 8 x14_8_ + 8 x14_9_ >= 1352
 R490: x0_1_ + x1_7_ + x2_9_ + x3_8_ + x4_1_ + x5_7_ + x6_2_ + x7_4_
   + x8_0_ + x9_3_ + x10_9_ + x11_3_ + x12_0_ + x13_4_ + x14_0_ <= 14
 R491: x0_5_ + x1_8_ + x2_9_ + x3_7_ + x4_4_ + x5_8_ + x6_2_ + x7_3_
   + x8_0_ + x9_4_ + x10_9_ + x11_5_ + x12_0_ + x13_2_ + x14_0_ <= 14
 R492: x0_4_ + x1_8_ + x2_9_ + x3_7_ + x4_3_ + x5_8_ + x6_2_ + x7_5_
   + x8_0_ + x9_5_ + x10_9_ + x11_1_ + x12_0_ + x13_2_ + x14_0_ <= 14
 R493: x0_3_ + x1_8_ + x2_9_ + x3_7_ + x4_5_ + x5_8_ + x6_2_ + x7_1_
   + x8_0_ + x9_1_ + x10_9_ + x11_4_ + x12_0_ + x13_2_ + x14_0_ <= 14
Bounds
Binaries
 x0_0_ x0_1_ x0_2_ x0_3_ x0_4_ x0_5_ x0_6_ x0_7_ x0_8_ x0_9_ x0_n_ x1_6_
 x1_7_ x1_8_ x1_9_ x1_n_ x2_7_ x2_8_ x2_9_ x2_n_ x3_6_ x3_7_ x3_8_ x3_9_
 x3_n_ x4_0_ x4_1_ x4_2_ x4_3_ x4_4_ x4_5_ x4_6_ x4_7_ x4_8_ x4_9_ x4_n_
 x5_6_ x5_7_ x5_8_ x5_9_ x5_n_ x6_0_ x6_1_ x6_2_ x6_3_ x6_4_ x6_5_ x6_6_
 x6_7_ x6_8_ x6_9_ x6_n_ x7_0_ x7_1_ x7_2_ x7_3_ x7_4_ x7_5_ x7_6_ x7_7_
 x7_8_ x7_9_ x7_n_ x8_0_ x8_1_ x8_2_ x8_3_ x8_4_ x8_5_ x8_6_ x8_7_ x8_8_
 x8_9_ x8_n_ x9_0_ x9_1_ x9_2_ x9_3_ x9_4_ x9_5_ x9_6_ x9_7_ x9_8_ x9_9_
 x9_n_ x10_7_ x10_8_ x10_9_ x10_n_ x11_0_ x11_1_ x11_2_ x11_3_ x11_4_
 x11_5_ x11_6_ x11_7_ x11_8_ x11_9_ x11_n_ x12_0_ x12_1_ x12_2_ x12_3_
 x12_4_ x12_5_ x12_6_ x12_7_ x12_8_ x12_9_ x12_n_ x13_0_ x13_1_ x13_2_
 x13_3_ x13_4_ x13_5_ x13_6_ x13_7_ x13_8_ x13_9_ x13_n_ x14_0_ x14_1_
 x14_2_ x14_3_ x14_4_ x14_5_ x14_6_ x14_7_ x14_8_ x14_9_ x14_n_
End
